logs/full/max/full-05-15-1.lp
\ LP format - for model browsing. Use MPS format to capture full model detail.
Maximize
  x0,1_5 + x0,1_6 + x0,1_11 + x0,1_12 + x0,1_13 + x0,1_19 + x0,1_24
   + x0,1_25 + x0,1_31 + x0,1_36 + x0,2_5 + x0,2_6 + x0,2_11 + x0,2_12
   + x0,2_13 + x0,2_19 + x0,2_24 + x0,2_25 + x0,2_31 + x0,2_36 + x0,3_5
   + x0,3_6 + x0,3_11 + x0,3_12 + x0,3_13 + x0,3_19 + x0,3_24 + x0,3_25
   + x0,3_31 + x0,3_36 + x0,4_5 + x0,4_6 + x0,4_11 + x0,4_12 + x0,4_13
   + x0,4_19 + x0,4_24 + x0,4_25 + x0,4_31 + x0,4_36 + x0,5_5 + x0,5_6
   + x0,5_11 + x0,5_12 + x0,5_13 + x0,5_19 + x0,5_24 + x0,5_25 + x0,5_31
   + x0,5_36 + x1,2_5 + x1,2_6 + x1,2_11 + x1,2_12 + x1,2_13 + x1,2_19
   + x1,2_24 + x1,2_25 + x1,2_31 + x1,2_36 + x1,3_5 + x1,3_6 + x1,3_11
   + x1,3_12 + x1,3_13 + x1,3_19 + x1,3_24 + x1,3_25 + x1,3_31 + x1,3_36
   + x1,4_5 + x1,4_6 + x1,4_11 + x1,4_12 + x1,4_13 + x1,4_19 + x1,4_24
   + x1,4_25 + x1,4_31 + x1,4_36 + x1,5_5 + x1,5_6 + x1,5_11 + x1,5_12
   + x1,5_13 + x1,5_19 + x1,5_24 + x1,5_25 + x1,5_31 + x1,5_36 + x2,3_5
   + x2,3_6 + x2,3_11 + x2,3_12 + x2,3_13 + x2,3_19 + x2,3_24 + x2,3_25
   + x2,3_31 + x2,3_36 + x2,4_5 + x2,4_6 + x2,4_11 + x2,4_12 + x2,4_13
   + x2,4_19 + x2,4_24 + x2,4_25 + x2,4_31 + x2,4_36 + x2,5_5 + x2,5_6
   + x2,5_11 + x2,5_12 + x2,5_13 + x2,5_19 + x2,5_24 + x2,5_25 + x2,5_31
   + x2,5_36 + x3,4_5 + x3,4_6 + x3,4_11 + x3,4_12 + x3,4_13 + x3,4_19
   + x3,4_24 + x3,4_25 + x3,4_31 + x3,4_36 + x3,5_5 + x3,5_6 + x3,5_11
   + x3,5_12 + x3,5_13 + x3,5_19 + x3,5_24 + x3,5_25 + x3,5_31 + x3,5_36
   + x4,5_5 + x4,5_6 + x4,5_11 + x4,5_12 + x4,5_13 + x4,5_19 + x4,5_24
   + x4,5_25 + x4,5_31 + x4,5_36
Subject To
 R0: x0,1_5 + x0,2_5 + x0,3_5 + x0,4_5 + x0,5_5 + x1,2_5 + x1,3_5 + x1,4_5
   + x1,5_5 + x2,3_5 + x2,4_5 + x2,5_5 + x3,4_5 + x3,5_5 + x4,5_5 <= 1
 R1: x0,1_6 + x0,2_6 + x0,3_6 + x0,4_6 + x0,5_6 + x1,2_6 + x1,3_6 + x1,4_6
   + x1,5_6 + x2,3_6 + x2,4_6 + x2,5_6 + x3,4_6 + x3,5_6 + x4,5_6 <= 1
 R2: x0,1_11 + x0,2_11 + x0,3_11 + x0,4_11 + x0,5_11 + x1,2_11 + x1,3_11
   + x1,4_11 + x1,5_11 + x2,3_11 + x2,4_11 + x2,5_11 + x3,4_11 + x3,5_11
   + x4,5_11 <= 1
 R3: x0,1_12 + x0,2_12 + x0,3_12 + x0,4_12 + x0,5_12 + x1,2_12 + x1,3_12
   + x1,4_12 + x1,5_12 + x2,3_12 + x2,4_12 + x2,5_12 + x3,4_12 + x3,5_12
   + x4,5_12 <= 1
 R4: x0,1_13 + x0,2_13 + x0,3_13 + x0,4_13 + x0,5_13 + x1,2_13 + x1,3_13
   + x1,4_13 + x1,5_13 + x2,3_13 + x2,4_13 + x2,5_13 + x3,4_13 + x3,5_13
   + x4,5_13 <= 1
 R5: x0,1_19 + x0,2_19 + x0,3_19 + x0,4_19 + x0,5_19 + x1,2_19 + x1,3_19
   + x1,4_19 + x1,5_19 + x2,3_19 + x2,4_19 + x2,5_19 + x3,4_19 + x3,5_19
   + x4,5_19 <= 1
 R6: x0,1_24 + x0,2_24 + x0,3_24 + x0,4_24 + x0,5_24 + x1,2_24 + x1,3_24
   + x1,4_24 + x1,5_24 + x2,3_24 + x2,4_24 + x2,5_24 + x3,4_24 + x3,5_24
   + x4,5_24 <= 1
 R7: x0,1_25 + x0,2_25 + x0,3_25 + x0,4_25 + x0,5_25 + x1,2_25 + x1,3_25
   + x1,4_25 + x1,5_25 + x2,3_25 + x2,4_25 + x2,5_25 + x3,4_25 + x3,5_25
   + x4,5_25 <= 1
 R8: x0,1_31 + x0,2_31 + x0,3_31 + x0,4_31 + x0,5_31 + x1,2_31 + x1,3_31
   + x1,4_31 + x1,5_31 + x2,3_31 + x2,4_31 + x2,5_31 + x3,4_31 + x3,5_31
   + x4,5_31 <= 1
 R9: x0,1_36 + x0,2_36 + x0,3_36 + x0,4_36 + x0,5_36 + x1,2_36 + x1,3_36
   + x1,4_36 + x1,5_36 + x2,3_36 + x2,4_36 + x2,5_36 + x3,4_36 + x3,5_36
   + x4,5_36 <= 1
 R10: x0,1_5 + x0,1_6 + x0,1_11 + x0,1_12 + x0,1_13 + x0,1_19 + x0,1_24
   + x0,1_25 + x0,1_31 + x0,1_36 <= 1
 R11: x0,2_5 + x0,2_6 + x0,2_11 + x0,2_12 + x0,2_13 + x0,2_19 + x0,2_24
   + x0,2_25 + x0,2_31 + x0,2_36 <= 1
 R12: x0,3_5 + x0,3_6 + x0,3_11 + x0,3_12 + x0,3_13 + x0,3_19 + x0,3_24
   + x0,3_25 + x0,3_31 + x0,3_36 <= 1
 R13: x0,4_5 + x0,4_6 + x0,4_11 + x0,4_12 + x0,4_13 + x0,4_19 + x0,4_24
   + x0,4_25 + x0,4_31 + x0,4_36 <= 1
 R14: x0,5_5 + x0,5_6 + x0,5_11 + x0,5_12 + x0,5_13 + x0,5_19 + x0,5_24
   + x0,5_25 + x0,5_31 + x0,5_36 <= 1
 R15: x1,2_5 + x1,2_6 + x1,2_11 + x1,2_12 + x1,2_13 + x1,2_19 + x1,2_24
   + x1,2_25 + x1,2_31 + x1,2_36 <= 1
 R16: x1,3_5 + x1,3_6 + x1,3_11 + x1,3_12 + x1,3_13 + x1,3_19 + x1,3_24
   + x1,3_25 + x1,3_31 + x1,3_36 <= 1
 R17: x1,4_5 + x1,4_6 + x1,4_11 + x1,4_12 + x1,4_13 + x1,4_19 + x1,4_24
   + x1,4_25 + x1,4_31 + x1,4_36 <= 1
 R18: x1,5_5 + x1,5_6 + x1,5_11 + x1,5_12 + x1,5_13 + x1,5_19 + x1,5_24
   + x1,5_25 + x1,5_31 + x1,5_36 <= 1
 R19: x2,3_5 + x2,3_6 + x2,3_11 + x2,3_12 + x2,3_13 + x2,3_19 + x2,3_24
   + x2,3_25 + x2,3_31 + x2,3_36 <= 1
 R20: x2,4_5 + x2,4_6 + x2,4_11 + x2,4_12 + x2,4_13 + x2,4_19 + x2,4_24
   + x2,4_25 + x2,4_31 + x2,4_36 <= 1
 R21: x2,5_5 + x2,5_6 + x2,5_11 + x2,5_12 + x2,5_13 + x2,5_19 + x2,5_24
   + x2,5_25 + x2,5_31 + x2,5_36 <= 1
 R22: x3,4_5 + x3,4_6 + x3,4_11 + x3,4_12 + x3,4_13 + x3,4_19 + x3,4_24
   + x3,4_25 + x3,4_31 + x3,4_36 <= 1
 R23: x3,5_5 + x3,5_6 + x3,5_11 + x3,5_12 + x3,5_13 + x3,5_19 + x3,5_24
   + x3,5_25 + x3,5_31 + x3,5_36 <= 1
 R24: x4,5_5 + x4,5_6 + x4,5_11 + x4,5_12 + x4,5_13 + x4,5_19 + x4,5_24
   + x4,5_25 + x4,5_31 + x4,5_36 <= 1
 R25: p0 - p1 <= -1
 R26: - 5 x0,1_5 - p0 + p1 >= 0
 R27: 182 x0,1_5 - p0 + p1 <= 187
 R28: - 6 x0,1_6 - p0 + p1 >= 0
 R29: 182 x0,1_6 - p0 + p1 <= 188
 R30: - 11 x0,1_11 - p0 + p1 >= 0
 R31: 182 x0,1_11 - p0 + p1 <= 193
 R32: - 12 x0,1_12 - p0 + p1 >= 0
 R33: 182 x0,1_12 - p0 + p1 <= 194
 R34: - 13 x0,1_13 - p0 + p1 >= 0
 R35: 182 x0,1_13 - p0 + p1 <= 195
 R36: - 19 x0,1_19 - p0 + p1 >= 0
 R37: 182 x0,1_19 - p0 + p1 <= 201
 R38: - 24 x0,1_24 - p0 + p1 >= 0
 R39: 182 x0,1_24 - p0 + p1 <= 206
 R40: - 25 x0,1_25 - p0 + p1 >= 0
 R41: 182 x0,1_25 - p0 + p1 <= 207
 R42: - 31 x0,1_31 - p0 + p1 >= 0
 R43: 182 x0,1_31 - p0 + p1 <= 213
 R44: - 36 x0,1_36 - p0 + p1 >= 0
 R45: 182 x0,1_36 - p0 + p1 <= 218
 R46: p0 - p2 <= -1
 R47: - 5 x0,2_5 - p0 + p2 >= 0
 R48: 182 x0,2_5 - p0 + p2 <= 187
 R49: - 6 x0,2_6 - p0 + p2 >= 0
 R50: 182 x0,2_6 - p0 + p2 <= 188
 R51: - 11 x0,2_11 - p0 + p2 >= 0
 R52: 182 x0,2_11 - p0 + p2 <= 193
 R53: - 12 x0,2_12 - p0 + p2 >= 0
 R54: 182 x0,2_12 - p0 + p2 <= 194
 R55: - 13 x0,2_13 - p0 + p2 >= 0
 R56: 182 x0,2_13 - p0 + p2 <= 195
 R57: - 19 x0,2_19 - p0 + p2 >= 0
 R58: 182 x0,2_19 - p0 + p2 <= 201
 R59: - 24 x0,2_24 - p0 + p2 >= 0
 R60: 182 x0,2_24 - p0 + p2 <= 206
 R61: - 25 x0,2_25 - p0 + p2 >= 0
 R62: 182 x0,2_25 - p0 + p2 <= 207
 R63: - 31 x0,2_31 - p0 + p2 >= 0
 R64: 182 x0,2_31 - p0 + p2 <= 213
 R65: - 36 x0,2_36 - p0 + p2 >= 0
 R66: 182 x0,2_36 - p0 + p2 <= 218
 R67: p0 - p3 <= -1
 R68: - 5 x0,3_5 - p0 + p3 >= 0
 R69: 182 x0,3_5 - p0 + p3 <= 187
 R70: - 6 x0,3_6 - p0 + p3 >= 0
 R71: 182 x0,3_6 - p0 + p3 <= 188
 R72: - 11 x0,3_11 - p0 + p3 >= 0
 R73: 182 x0,3_11 - p0 + p3 <= 193
 R74: - 12 x0,3_12 - p0 + p3 >= 0
 R75: 182 x0,3_12 - p0 + p3 <= 194
 R76: - 13 x0,3_13 - p0 + p3 >= 0
 R77: 182 x0,3_13 - p0 + p3 <= 195
 R78: - 19 x0,3_19 - p0 + p3 >= 0
 R79: 182 x0,3_19 - p0 + p3 <= 201
 R80: - 24 x0,3_24 - p0 + p3 >= 0
 R81: 182 x0,3_24 - p0 + p3 <= 206
 R82: - 25 x0,3_25 - p0 + p3 >= 0
 R83: 182 x0,3_25 - p0 + p3 <= 207
 R84: - 31 x0,3_31 - p0 + p3 >= 0
 R85: 182 x0,3_31 - p0 + p3 <= 213
 R86: - 36 x0,3_36 - p0 + p3 >= 0
 R87: 182 x0,3_36 - p0 + p3 <= 218
 R88: p0 - p4 <= -1
 R89: - 5 x0,4_5 - p0 + p4 >= 0
 R90: 182 x0,4_5 - p0 + p4 <= 187
 R91: - 6 x0,4_6 - p0 + p4 >= 0
 R92: 182 x0,4_6 - p0 + p4 <= 188
 R93: - 11 x0,4_11 - p0 + p4 >= 0
 R94: 182 x0,4_11 - p0 + p4 <= 193
 R95: - 12 x0,4_12 - p0 + p4 >= 0
 R96: 182 x0,4_12 - p0 + p4 <= 194
 R97: - 13 x0,4_13 - p0 + p4 >= 0
 R98: 182 x0,4_13 - p0 + p4 <= 195
 R99: - 19 x0,4_19 - p0 + p4 >= 0
 R100: 182 x0,4_19 - p0 + p4 <= 201
 R101: - 24 x0,4_24 - p0 + p4 >= 0
 R102: 182 x0,4_24 - p0 + p4 <= 206
 R103: - 25 x0,4_25 - p0 + p4 >= 0
 R104: 182 x0,4_25 - p0 + p4 <= 207
 R105: - 31 x0,4_31 - p0 + p4 >= 0
 R106: 182 x0,4_31 - p0 + p4 <= 213
 R107: - 36 x0,4_36 - p0 + p4 >= 0
 R108: 182 x0,4_36 - p0 + p4 <= 218
 R109: p0 - p5 <= -1
 R110: - 5 x0,5_5 - p0 + p5 >= 0
 R111: 182 x0,5_5 - p0 + p5 <= 187
 R112: - 6 x0,5_6 - p0 + p5 >= 0
 R113: 182 x0,5_6 - p0 + p5 <= 188
 R114: - 11 x0,5_11 - p0 + p5 >= 0
 R115: 182 x0,5_11 - p0 + p5 <= 193
 R116: - 12 x0,5_12 - p0 + p5 >= 0
 R117: 182 x0,5_12 - p0 + p5 <= 194
 R118: - 13 x0,5_13 - p0 + p5 >= 0
 R119: 182 x0,5_13 - p0 + p5 <= 195
 R120: - 19 x0,5_19 - p0 + p5 >= 0
 R121: 182 x0,5_19 - p0 + p5 <= 201
 R122: - 24 x0,5_24 - p0 + p5 >= 0
 R123: 182 x0,5_24 - p0 + p5 <= 206
 R124: - 25 x0,5_25 - p0 + p5 >= 0
 R125: 182 x0,5_25 - p0 + p5 <= 207
 R126: - 31 x0,5_31 - p0 + p5 >= 0
 R127: 182 x0,5_31 - p0 + p5 <= 213
 R128: - 36 x0,5_36 - p0 + p5 >= 0
 R129: 182 x0,5_36 - p0 + p5 <= 218
 R130: p1 - p2 <= -1
 R131: - 5 x1,2_5 - p1 + p2 >= 0
 R132: 182 x1,2_5 - p1 + p2 <= 187
 R133: - 6 x1,2_6 - p1 + p2 >= 0
 R134: 182 x1,2_6 - p1 + p2 <= 188
 R135: - 11 x1,2_11 - p1 + p2 >= 0
 R136: 182 x1,2_11 - p1 + p2 <= 193
 R137: - 12 x1,2_12 - p1 + p2 >= 0
 R138: 182 x1,2_12 - p1 + p2 <= 194
 R139: - 13 x1,2_13 - p1 + p2 >= 0
 R140: 182 x1,2_13 - p1 + p2 <= 195
 R141: - 19 x1,2_19 - p1 + p2 >= 0
 R142: 182 x1,2_19 - p1 + p2 <= 201
 R143: - 24 x1,2_24 - p1 + p2 >= 0
 R144: 182 x1,2_24 - p1 + p2 <= 206
 R145: - 25 x1,2_25 - p1 + p2 >= 0
 R146: 182 x1,2_25 - p1 + p2 <= 207
 R147: - 31 x1,2_31 - p1 + p2 >= 0
 R148: 182 x1,2_31 - p1 + p2 <= 213
 R149: - 36 x1,2_36 - p1 + p2 >= 0
 R150: 182 x1,2_36 - p1 + p2 <= 218
 R151: p1 - p3 <= -1
 R152: - 5 x1,3_5 - p1 + p3 >= 0
 R153: 182 x1,3_5 - p1 + p3 <= 187
 R154: - 6 x1,3_6 - p1 + p3 >= 0
 R155: 182 x1,3_6 - p1 + p3 <= 188
 R156: - 11 x1,3_11 - p1 + p3 >= 0
 R157: 182 x1,3_11 - p1 + p3 <= 193
 R158: - 12 x1,3_12 - p1 + p3 >= 0
 R159: 182 x1,3_12 - p1 + p3 <= 194
 R160: - 13 x1,3_13 - p1 + p3 >= 0
 R161: 182 x1,3_13 - p1 + p3 <= 195
 R162: - 19 x1,3_19 - p1 + p3 >= 0
 R163: 182 x1,3_19 - p1 + p3 <= 201
 R164: - 24 x1,3_24 - p1 + p3 >= 0
 R165: 182 x1,3_24 - p1 + p3 <= 206
 R166: - 25 x1,3_25 - p1 + p3 >= 0
 R167: 182 x1,3_25 - p1 + p3 <= 207
 R168: - 31 x1,3_31 - p1 + p3 >= 0
 R169: 182 x1,3_31 - p1 + p3 <= 213
 R170: - 36 x1,3_36 - p1 + p3 >= 0
 R171: 182 x1,3_36 - p1 + p3 <= 218
 R172: p1 - p4 <= -1
 R173: - 5 x1,4_5 - p1 + p4 >= 0
 R174: 182 x1,4_5 - p1 + p4 <= 187
 R175: - 6 x1,4_6 - p1 + p4 >= 0
 R176: 182 x1,4_6 - p1 + p4 <= 188
 R177: - 11 x1,4_11 - p1 + p4 >= 0
 R178: 182 x1,4_11 - p1 + p4 <= 193
 R179: - 12 x1,4_12 - p1 + p4 >= 0
 R180: 182 x1,4_12 - p1 + p4 <= 194
 R181: - 13 x1,4_13 - p1 + p4 >= 0
 R182: 182 x1,4_13 - p1 + p4 <= 195
 R183: - 19 x1,4_19 - p1 + p4 >= 0
 R184: 182 x1,4_19 - p1 + p4 <= 201
 R185: - 24 x1,4_24 - p1 + p4 >= 0
 R186: 182 x1,4_24 - p1 + p4 <= 206
 R187: - 25 x1,4_25 - p1 + p4 >= 0
 R188: 182 x1,4_25 - p1 + p4 <= 207
 R189: - 31 x1,4_31 - p1 + p4 >= 0
 R190: 182 x1,4_31 - p1 + p4 <= 213
 R191: - 36 x1,4_36 - p1 + p4 >= 0
 R192: 182 x1,4_36 - p1 + p4 <= 218
 R193: p1 - p5 <= -1
 R194: - 5 x1,5_5 - p1 + p5 >= 0
 R195: 182 x1,5_5 - p1 + p5 <= 187
 R196: - 6 x1,5_6 - p1 + p5 >= 0
 R197: 182 x1,5_6 - p1 + p5 <= 188
 R198: - 11 x1,5_11 - p1 + p5 >= 0
 R199: 182 x1,5_11 - p1 + p5 <= 193
 R200: - 12 x1,5_12 - p1 + p5 >= 0
 R201: 182 x1,5_12 - p1 + p5 <= 194
 R202: - 13 x1,5_13 - p1 + p5 >= 0
 R203: 182 x1,5_13 - p1 + p5 <= 195
 R204: - 19 x1,5_19 - p1 + p5 >= 0
 R205: 182 x1,5_19 - p1 + p5 <= 201
 R206: - 24 x1,5_24 - p1 + p5 >= 0
 R207: 182 x1,5_24 - p1 + p5 <= 206
 R208: - 25 x1,5_25 - p1 + p5 >= 0
 R209: 182 x1,5_25 - p1 + p5 <= 207
 R210: - 31 x1,5_31 - p1 + p5 >= 0
 R211: 182 x1,5_31 - p1 + p5 <= 213
 R212: - 36 x1,5_36 - p1 + p5 >= 0
 R213: 182 x1,5_36 - p1 + p5 <= 218
 R214: p2 - p3 <= -1
 R215: - 5 x2,3_5 - p2 + p3 >= 0
 R216: 182 x2,3_5 - p2 + p3 <= 187
 R217: - 6 x2,3_6 - p2 + p3 >= 0
 R218: 182 x2,3_6 - p2 + p3 <= 188
 R219: - 11 x2,3_11 - p2 + p3 >= 0
 R220: 182 x2,3_11 - p2 + p3 <= 193
 R221: - 12 x2,3_12 - p2 + p3 >= 0
 R222: 182 x2,3_12 - p2 + p3 <= 194
 R223: - 13 x2,3_13 - p2 + p3 >= 0
 R224: 182 x2,3_13 - p2 + p3 <= 195
 R225: - 19 x2,3_19 - p2 + p3 >= 0
 R226: 182 x2,3_19 - p2 + p3 <= 201
 R227: - 24 x2,3_24 - p2 + p3 >= 0
 R228: 182 x2,3_24 - p2 + p3 <= 206
 R229: - 25 x2,3_25 - p2 + p3 >= 0
 R230: 182 x2,3_25 - p2 + p3 <= 207
 R231: - 31 x2,3_31 - p2 + p3 >= 0
 R232: 182 x2,3_31 - p2 + p3 <= 213
 R233: - 36 x2,3_36 - p2 + p3 >= 0
 R234: 182 x2,3_36 - p2 + p3 <= 218
 R235: p2 - p4 <= -1
 R236: - 5 x2,4_5 - p2 + p4 >= 0
 R237: 182 x2,4_5 - p2 + p4 <= 187
 R238: - 6 x2,4_6 - p2 + p4 >= 0
 R239: 182 x2,4_6 - p2 + p4 <= 188
 R240: - 11 x2,4_11 - p2 + p4 >= 0
 R241: 182 x2,4_11 - p2 + p4 <= 193
 R242: - 12 x2,4_12 - p2 + p4 >= 0
 R243: 182 x2,4_12 - p2 + p4 <= 194
 R244: - 13 x2,4_13 - p2 + p4 >= 0
 R245: 182 x2,4_13 - p2 + p4 <= 195
 R246: - 19 x2,4_19 - p2 + p4 >= 0
 R247: 182 x2,4_19 - p2 + p4 <= 201
 R248: - 24 x2,4_24 - p2 + p4 >= 0
 R249: 182 x2,4_24 - p2 + p4 <= 206
 R250: - 25 x2,4_25 - p2 + p4 >= 0
 R251: 182 x2,4_25 - p2 + p4 <= 207
 R252: - 31 x2,4_31 - p2 + p4 >= 0
 R253: 182 x2,4_31 - p2 + p4 <= 213
 R254: - 36 x2,4_36 - p2 + p4 >= 0
 R255: 182 x2,4_36 - p2 + p4 <= 218
 R256: p2 - p5 <= -1
 R257: - 5 x2,5_5 - p2 + p5 >= 0
 R258: 182 x2,5_5 - p2 + p5 <= 187
 R259: - 6 x2,5_6 - p2 + p5 >= 0
 R260: 182 x2,5_6 - p2 + p5 <= 188
 R261: - 11 x2,5_11 - p2 + p5 >= 0
 R262: 182 x2,5_11 - p2 + p5 <= 193
 R263: - 12 x2,5_12 - p2 + p5 >= 0
 R264: 182 x2,5_12 - p2 + p5 <= 194
 R265: - 13 x2,5_13 - p2 + p5 >= 0
 R266: 182 x2,5_13 - p2 + p5 <= 195
 R267: - 19 x2,5_19 - p2 + p5 >= 0
 R268: 182 x2,5_19 - p2 + p5 <= 201
 R269: - 24 x2,5_24 - p2 + p5 >= 0
 R270: 182 x2,5_24 - p2 + p5 <= 206
 R271: - 25 x2,5_25 - p2 + p5 >= 0
 R272: 182 x2,5_25 - p2 + p5 <= 207
 R273: - 31 x2,5_31 - p2 + p5 >= 0
 R274: 182 x2,5_31 - p2 + p5 <= 213
 R275: - 36 x2,5_36 - p2 + p5 >= 0
 R276: 182 x2,5_36 - p2 + p5 <= 218
 R277: p3 - p4 <= -1
 R278: - 5 x3,4_5 - p3 + p4 >= 0
 R279: 182 x3,4_5 - p3 + p4 <= 187
 R280: - 6 x3,4_6 - p3 + p4 >= 0
 R281: 182 x3,4_6 - p3 + p4 <= 188
 R282: - 11 x3,4_11 - p3 + p4 >= 0
 R283: 182 x3,4_11 - p3 + p4 <= 193
 R284: - 12 x3,4_12 - p3 + p4 >= 0
 R285: 182 x3,4_12 - p3 + p4 <= 194
 R286: - 13 x3,4_13 - p3 + p4 >= 0
 R287: 182 x3,4_13 - p3 + p4 <= 195
 R288: - 19 x3,4_19 - p3 + p4 >= 0
 R289: 182 x3,4_19 - p3 + p4 <= 201
 R290: - 24 x3,4_24 - p3 + p4 >= 0
 R291: 182 x3,4_24 - p3 + p4 <= 206
 R292: - 25 x3,4_25 - p3 + p4 >= 0
 R293: 182 x3,4_25 - p3 + p4 <= 207
 R294: - 31 x3,4_31 - p3 + p4 >= 0
 R295: 182 x3,4_31 - p3 + p4 <= 213
 R296: - 36 x3,4_36 - p3 + p4 >= 0
 R297: 182 x3,4_36 - p3 + p4 <= 218
 R298: p3 - p5 <= -1
 R299: - 5 x3,5_5 - p3 + p5 >= 0
 R300: 182 x3,5_5 - p3 + p5 <= 187
 R301: - 6 x3,5_6 - p3 + p5 >= 0
 R302: 182 x3,5_6 - p3 + p5 <= 188
 R303: - 11 x3,5_11 - p3 + p5 >= 0
 R304: 182 x3,5_11 - p3 + p5 <= 193
 R305: - 12 x3,5_12 - p3 + p5 >= 0
 R306: 182 x3,5_12 - p3 + p5 <= 194
 R307: - 13 x3,5_13 - p3 + p5 >= 0
 R308: 182 x3,5_13 - p3 + p5 <= 195
 R309: - 19 x3,5_19 - p3 + p5 >= 0
 R310: 182 x3,5_19 - p3 + p5 <= 201
 R311: - 24 x3,5_24 - p3 + p5 >= 0
 R312: 182 x3,5_24 - p3 + p5 <= 206
 R313: - 25 x3,5_25 - p3 + p5 >= 0
 R314: 182 x3,5_25 - p3 + p5 <= 207
 R315: - 31 x3,5_31 - p3 + p5 >= 0
 R316: 182 x3,5_31 - p3 + p5 <= 213
 R317: - 36 x3,5_36 - p3 + p5 >= 0
 R318: 182 x3,5_36 - p3 + p5 <= 218
 R319: p4 - p5 <= -1
 R320: - 5 x4,5_5 - p4 + p5 >= 0
 R321: 182 x4,5_5 - p4 + p5 <= 187
 R322: - 6 x4,5_6 - p4 + p5 >= 0
 R323: 182 x4,5_6 - p4 + p5 <= 188
 R324: - 11 x4,5_11 - p4 + p5 >= 0
 R325: 182 x4,5_11 - p4 + p5 <= 193
 R326: - 12 x4,5_12 - p4 + p5 >= 0
 R327: 182 x4,5_12 - p4 + p5 <= 194
 R328: - 13 x4,5_13 - p4 + p5 >= 0
 R329: 182 x4,5_13 - p4 + p5 <= 195
 R330: - 19 x4,5_19 - p4 + p5 >= 0
 R331: 182 x4,5_19 - p4 + p5 <= 201
 R332: - 24 x4,5_24 - p4 + p5 >= 0
 R333: 182 x4,5_24 - p4 + p5 <= 206
 R334: - 25 x4,5_25 - p4 + p5 >= 0
 R335: 182 x4,5_25 - p4 + p5 <= 207
 R336: - 31 x4,5_31 - p4 + p5 >= 0
 R337: 182 x4,5_31 - p4 + p5 <= 213
 R338: - 36 x4,5_36 - p4 + p5 >= 0
 R339: 182 x4,5_36 - p4 + p5 <= 218
Bounds
Binaries
 x0,1_5 x0,1_6 x0,1_11 x0,1_12 x0,1_13 x0,1_19 x0,1_24 x0,1_25 x0,1_31
 x0,1_36 x0,2_5 x0,2_6 x0,2_11 x0,2_12 x0,2_13 x0,2_19 x0,2_24 x0,2_25
 x0,2_31 x0,2_36 x0,3_5 x0,3_6 x0,3_11 x0,3_12 x0,3_13 x0,3_19 x0,3_24
 x0,3_25 x0,3_31 x0,3_36 x0,4_5 x0,4_6 x0,4_11 x0,4_12 x0,4_13 x0,4_19
 x0,4_24 x0,4_25 x0,4_31 x0,4_36 x0,5_5 x0,5_6 x0,5_11 x0,5_12 x0,5_13
 x0,5_19 x0,5_24 x0,5_25 x0,5_31 x0,5_36 x1,2_5 x1,2_6 x1,2_11 x1,2_12
 x1,2_13 x1,2_19 x1,2_24 x1,2_25 x1,2_31 x1,2_36 x1,3_5 x1,3_6 x1,3_11
 x1,3_12 x1,3_13 x1,3_19 x1,3_24 x1,3_25 x1,3_31 x1,3_36 x1,4_5 x1,4_6
 x1,4_11 x1,4_12 x1,4_13 x1,4_19 x1,4_24 x1,4_25 x1,4_31 x1,4_36 x1,5_5
 x1,5_6 x1,5_11 x1,5_12 x1,5_13 x1,5_19 x1,5_24 x1,5_25 x1,5_31 x1,5_36
 x2,3_5 x2,3_6 x2,3_11 x2,3_12 x2,3_13 x2,3_19 x2,3_24 x2,3_25 x2,3_31
 x2,3_36 x2,4_5 x2,4_6 x2,4_11 x2,4_12 x2,4_13 x2,4_19 x2,4_24 x2,4_25
 x2,4_31 x2,4_36 x2,5_5 x2,5_6 x2,5_11 x2,5_12 x2,5_13 x2,5_19 x2,5_24
 x2,5_25 x2,5_31 x2,5_36 x3,4_5 x3,4_6 x3,4_11 x3,4_12 x3,4_13 x3,4_19
 x3,4_24 x3,4_25 x3,4_31 x3,4_36 x3,5_5 x3,5_6 x3,5_11 x3,5_12 x3,5_13
 x3,5_19 x3,5_24 x3,5_25 x3,5_31 x3,5_36 x4,5_5 x4,5_6 x4,5_11 x4,5_12
 x4,5_13 x4,5_19 x4,5_24 x4,5_25 x4,5_31 x4,5_36
Generals
 p0 p1 p2 p3 p4 p5
End
