logs/full/max/full-05-15-1.sol
# Objective value = 10
x0,1_5 0
x0,1_6 0
x0,1_11 0
x0,1_12 0
x0,1_13 0
x0,1_19 0
x0,1_24 0
x0,1_25 0
x0,1_31 0
x0,1_36 0
x0,2_5 0
x0,2_6 0
x0,2_11 0
x0,2_12 0
x0,2_13 0
x0,2_19 0
x0,2_24 0
x0,2_25 0
x0,2_31 1
x0,2_36 0
x0,3_5 0
x0,3_6 0
x0,3_11 0
x0,3_12 0
x0,3_13 0
x0,3_19 0
x0,3_24 0
x0,3_25 0
x0,3_31 0
x0,3_36 1
x0,4_5 0
x0,4_6 0
x0,4_11 0
x0,4_12 0
x0,4_13 0
x0,4_19 0
x0,4_24 0
x0,4_25 0
x0,4_31 0
x0,4_36 0
x0,5_5 0
x0,5_6 0
x0,5_11 0
x0,5_12 0
x0,5_13 0
x0,5_19 0
x0,5_24 0
x0,5_25 0
x0,5_31 0
x0,5_36 0
x1,2_5 0
x1,2_6 0
x1,2_11 0
x1,2_12 0
x1,2_13 0
x1,2_19 0
x1,2_24 0
x1,2_25 0
x1,2_31 0
x1,2_36 0
x1,3_5 0
x1,3_6 1
x1,3_11 0
x1,3_12 0
x1,3_13 0
x1,3_19 0
x1,3_24 0
x1,3_25 0
x1,3_31 0
x1,3_36 0
x1,4_5 0
x1,4_6 0
x1,4_11 0
x1,4_12 1
x1,4_13 0
x1,4_19 0
x1,4_24 0
x1,4_25 0
x1,4_31 0
x1,4_36 0
x1,5_5 0
x1,5_6 0
x1,5_11 0
x1,5_12 0
x1,5_13 0
x1,5_19 0
x1,5_24 0
x1,5_25 1
x1,5_31 0
x1,5_36 0
x2,3_5 1
x2,3_6 0
x2,3_11 0
x2,3_12 0
x2,3_13 0
x2,3_19 0
x2,3_24 0
x2,3_25 0
x2,3_31 0
x2,3_36 0
x2,4_5 0
x2,4_6 0
x2,4_11 1
x2,4_12 0
x2,4_13 0
x2,4_19 0
x2,4_24 0
x2,4_25 0
x2,4_31 0
x2,4_36 0
x2,5_5 0
x2,5_6 0
x2,5_11 0
x2,5_12 0
x2,5_13 0
x2,5_19 0
x2,5_24 1
x2,5_25 0
x2,5_31 0
x2,5_36 0
x3,4_5 0
x3,4_6 0
x3,4_11 0
x3,4_12 0
x3,4_13 0
x3,4_19 0
x3,4_24 0
x3,4_25 0
x3,4_31 0
x3,4_36 0
x3,5_5 0
x3,5_6 0
x3,5_11 0
x3,5_12 0
x3,5_13 0
x3,5_19 1
x3,5_24 0
x3,5_25 0
x3,5_31 0
x3,5_36 0
x4,5_5 0
x4,5_6 0
x4,5_11 0
x4,5_12 0
x4,5_13 1
x4,5_19 0
x4,5_24 0
x4,5_25 0
x4,5_31 0
x4,5_36 0
p0 6
p1 36
p2 37
p3 42
p4 48
p5 61
