logs/full/max/full-05-15-1.log

Gurobi 8.1.1 (win64) logging started 11/23/19 13:00:10

Changed value of parameter LogFile to logs/full/max/full-05-15-1.log
   Prev: gurobi.log  Default: 
Changed value of parameter LogToConsole to 0
   Prev: 1  Min: 0  Max: 1  Default: 1
Changed value of parameter TimeLimit to 3600.0
   Prev: 1e+100  Min: 0.0  Max: 1e+100  Default: 1e+100
Optimize a model with 802 rows, 369 columns and 2952 nonzeros
Variable types: 0 continuous, 369 integer (360 binary)
Coefficient statistics:
  Matrix range     [1e+00, 2e+02]
  Objective range  [1e+00, 1e+00]
  Bounds range     [1e+00, 1e+00]
  RHS range        [1e+00, 2e+02]
Found heuristic solution: objective 2.0000000
Presolve time: 0.01s
Presolved: 802 rows, 369 columns, 2952 nonzeros
Variable types: 0 continuous, 369 integer (360 binary)

Root relaxation: objective 1.000000e+01, 90 iterations, 0.00 seconds

    Nodes    |    Current Node    |     Objective Bounds      |     Work
 Expl Unexpl |  Obj  Depth IntInf | Incumbent    BestBd   Gap | It/Node Time

H    0     0                      10.0000000  360.00000  3500%     -    0s
     0     0          -    0        10.00000   10.00000  0.00%     -    0s

Explored 0 nodes (369 simplex iterations) in 0.03 seconds
Thread count was 4 (of 4 available processors)

Solution count 2: 10 2 

Optimal solution found (tolerance 1.00e-04)
Best objective 1.000000000000e+01, best bound 1.000000000000e+01, gap 0.0000%

Gurobi 8.1.1 (win64) logging started 11/23/19 13:00:10

Changed value of parameter LogFile to logs/full/max/full-05-15-1.log
   Prev: gurobi.log  Default: 
Changed value of parameter LogToConsole to 0
   Prev: 1  Min: 0  Max: 1  Default: 1
Changed value of parameter TimeLimit to 3600.0
   Prev: 1e+100  Min: 0.0  Max: 1e+100  Default: 1e+100
Optimize a model with 472 rows, 217 columns and 1722 nonzeros
Variable types: 0 continuous, 217 integer (210 binary)
Coefficient statistics:
  Matrix range     [1e+00, 2e+02]
  Objective range  [1e+00, 1e+00]
  Bounds range     [1e+00, 1e+00]
  RHS range        [1e+00, 2e+02]
Found heuristic solution: objective 2.0000000
Presolve time: 0.01s
Presolved: 472 rows, 217 columns, 1722 nonzeros
Variable types: 0 continuous, 217 integer (210 binary)

Root relaxation: objective 1.000000e+01, 77 iterations, 0.00 seconds

    Nodes    |    Current Node    |     Objective Bounds      |     Work
 Expl Unexpl |  Obj  Depth IntInf | Incumbent    BestBd   Gap | It/Node Time

H    0     0                      10.0000000  210.00000  2000%     -    0s
     0     0          -    0        10.00000   10.00000  0.00%     -    0s

Explored 0 nodes (265 simplex iterations) in 0.02 seconds
Thread count was 4 (of 4 available processors)

Solution count 2: 10 2 

Optimal solution found (tolerance 1.00e-04)
Best objective 1.000000000000e+01, best bound 1.000000000000e+01, gap 0.0000%

Gurobi 8.1.1 (win64) logging started 11/23/19 13:00:11

Changed value of parameter LogFile to logs/full/max/full-05-15-1.log
   Prev: gurobi.log  Default: 
Changed value of parameter LogToConsole to 0
   Prev: 1  Min: 0  Max: 1  Default: 1
Changed value of parameter TimeLimit to 3600.0
   Prev: 1e+100  Min: 0.0  Max: 1e+100  Default: 1e+100
Optimize a model with 340 rows, 156 columns and 1230 nonzeros
Variable types: 0 continuous, 156 integer (150 binary)
Coefficient statistics:
  Matrix range     [1e+00, 2e+02]
  Objective range  [1e+00, 1e+00]
  Bounds range     [1e+00, 1e+00]
  RHS range        [1e+00, 2e+02]
Found heuristic solution: objective 1.0000000
Presolve time: 0.00s
Presolved: 340 rows, 156 columns, 1230 nonzeros
Variable types: 0 continuous, 156 integer (150 binary)

Root relaxation: objective 1.000000e+01, 74 iterations, 0.00 seconds

    Nodes    |    Current Node    |     Objective Bounds      |     Work
 Expl Unexpl |  Obj  Depth IntInf | Incumbent    BestBd   Gap | It/Node Time

H    0     0                      10.0000000  150.00000  1400%     -    0s
     0     0          -    0        10.00000   10.00000  0.00%     -    0s

Explored 0 nodes (251 simplex iterations) in 0.01 seconds
Thread count was 4 (of 4 available processors)

Solution count 2: 10 1 

Optimal solution found (tolerance 1.00e-04)
Best objective 1.000000000000e+01, best bound 1.000000000000e+01, gap 0.0000%
